NAME : random_16
COMMENT : 60 random nodes
TYPE : TSP
DIMENSION : 60
EDGE_WEIGHT_TYPE : EUC_2D
NODE_COORD_SECTION
1 580 605
2 584 161
3 768 231
4 373 599
5 861 178
6 223 662
7 526 239
8 179 930
9 854 852
10 61 243
11 716 964
12 965 92
13 223 36
14 498 953
15 480 806
16 804 817
17 671 787
18 498 681
19 163 507
20 183 5
21 204 393
22 107 329
23 261 292
24 304 555
25 565 278
26 862 581
27 473 937
28 639 594
29 786 577
30 654 940
31 356 751
32 819 392
33 415 145
34 262 892
35 822 356
36 266 783
37 798 465
38 822 100
39 534 931
40 871 607
41 794 736
42 204 700
43 707 305
44 937 436
45 612 22
46 1 336
47 707 722
48 148 545
49 683 751
50 996 610
51 811 779
52 991 785
53 6 723
54 20 652
55 986 309
56 942 578
57 371 825
58 775 105
59 487 297
60 891 764
EOF